NAME          
ROWS
 N  OBJ
 L  c1
 L  c2
COLUMNS
    MARKER    'MARKER'                 'INTORG'
    x[1]      c1        330
    x[1]      c2        295
    x[1]      OBJ       -717
    x[2]      c1        754
    x[2]      c2        943
    x[2]      OBJ       -326
    x[3]      c1        105
    x[3]      c2        57
    x[3]      OBJ       -471
    x[4]      c1        112
    x[4]      c2        628
    x[4]      OBJ       -193
    x[5]      c1        432
    x[5]      c2        452
    x[5]      OBJ       -270
    x[6]      c1        540
    x[6]      c2        203
    x[6]      OBJ       -296
    x[7]      c1        293
    x[7]      c2        62
    x[7]      OBJ       -622
    x[8]      c1        418
    x[8]      c2        721
    x[8]      OBJ       -614
    x[9]      c1        947
    x[9]      c2        758
    x[9]      OBJ       -823
    x[10]     c1        202
    x[10]     c2        272
    x[10]     OBJ       -824
    x[11]     c1        168
    x[11]     c2        345
    x[11]     OBJ       -270
    x[12]     c1        274
    x[12]     c2        431
    x[12]     OBJ       -741
    x[13]     c1        751
    x[13]     c2        864
    x[13]     OBJ       -392
    x[14]     c1        902
    x[14]     c2        302
    x[14]     OBJ       -950
    x[15]     c1        641
    x[15]     c2        43
    x[15]     OBJ       -344
RHS
    rhs       c1        3434
    rhs       c2        3188
RANGES
BOUNDS
 BV bounds    x[1]
 BV bounds    x[2]
 BV bounds    x[3]
 BV bounds    x[4]
 BV bounds    x[5]
 BV bounds    x[6]
 BV bounds    x[7]
 BV bounds    x[8]
 BV bounds    x[9]
 BV bounds    x[10]
 BV bounds    x[11]
 BV bounds    x[12]
 BV bounds    x[13]
 BV bounds    x[14]
 BV bounds    x[15]
ENDATA
